
n_res = 6;
rcap = [28, 29, 632, 578, 566, 583];
rtype = [1, 1, 2, 2, 2, 2];
n_tasks = 50;
modes =  [{1, 2, 3, 4, 5, 6}, {7, 8, 9, 10, 11, 12}, {13, 14, 15, 16, 17, 18}, {19, 20, 21, 22, 23, 24}, {25, 26, 27, 28, 29, 30}, {31, 32, 33, 34, 35, 36}, {37, 38, 39, 40, 41, 42}, {43, 44, 45, 46, 47, 48}, {49, 50, 51, 52, 53, 54}, {55, 56, 57, 58, 59, 60}, {61, 62, 63, 64, 65, 66}, {67, 68, 69, 70, 71, 72}, {73, 74, 75, 76, 77, 78}, {79, 80, 81, 82, 83, 84}, {85, 86, 87, 88, 89, 90}, {91, 92, 93, 94, 95, 96}, {97, 98, 99, 100, 101, 102}, {103, 104, 105, 106, 107, 108}, {109, 110, 111, 112, 113, 114}, {115, 116, 117, 118, 119, 120}, {121, 122, 123, 124, 125, 126}, {127, 128, 129, 130, 131, 132}, {133, 134, 135, 136, 137, 138}, {139, 140, 141, 142, 143, 144}, {145, 146, 147, 148, 149, 150}, {151, 152, 153, 154, 155, 156}, {157, 158, 159, 160, 161, 162}, {163, 164, 165, 166, 167, 168}, {169, 170, 171, 172, 173, 174}, {175, 176, 177, 178, 179, 180}, {181, 182, 183, 184, 185, 186}, {187, 188, 189, 190, 191, 192}, {193, 194, 195, 196, 197, 198}, {199, 200, 201, 202, 203, 204}, {205, 206, 207, 208, 209, 210}, {211, 212, 213, 214, 215, 216}, {217, 218, 219, 220, 221, 222}, {223, 224, 225, 226, 227, 228}, {229, 230, 231, 232, 233, 234}, {235, 236, 237, 238, 239, 240}, {241, 242, 243, 244, 245, 246}, {247, 248, 249, 250, 251, 252}, {253, 254, 255, 256, 257, 258}, {259, 260, 261, 262, 263, 264}, {265, 266, 267, 268, 269, 270}, {271, 272, 273, 274, 275, 276}, {277, 278, 279, 280, 281, 282}, {283, 284, 285, 286, 287, 288}, {289, 290, 291, 292, 293, 294}, {295, 296, 297, 298, 299, 300}];
succ =  [{31, 21, 19, 16, 15, 14, 8}, {32, 31, 19, 18, 17, 14, 8}, {31, 17, 16, 11, 8}, {25, 24, 23, 21, 19, 18, 16, 13}, {31, 29, 25, 22, 19, 14, 13, 12}, {32, 31, 21, 17, 8}, {31, 29, 26, 24, 23, 20, 19, 17, 16}, {35, 29, 25, 24, 23, 13}, {31, 28, 26, 24, 16, 12}, {50, 44, 37, 35, 32, 29, 28, 26, 23}, {35, 29, 26, 24, 19}, {38, 37, 35, 32, 30, 27, 23}, {39, 33, 28, 27, 26, 20}, {49, 44, 43, 39, 37, 33, 27, 26}, {43, 39, 38, 37, 33, 30, 28, 27}, {38, 37, 35, 34, 32, 30, 27}, {39, 37, 33, 30, 28, 27}, {50, 39, 38, 30, 29, 28}, {50, 49, 48, 44, 43, 42, 37, 33, 30}, {50, 49, 44, 42, 37, 36, 34, 30}, {47, 44, 39, 37, 34, 27}, {49, 43, 42, 41, 39, 38, 34}, {48, 43, 42, 41, 39, 33}, {50, 49, 48, 47, 39, 38}, {47, 42, 41, 39, 33}, {42, 34, 30}, {50, 46, 42, 40, 36}, {49, 46, 41, 40, 36}, {43, 34}, {47, 46, 41, 40}, {49, 46, 41, 40}, {47, 46, 41}, {34}, {46, 40}, {49, 40}, {48, 45}, {46, 45}, {46, 45}, {40}, {45}, {45}, {45}, {47}, {45}, {}, {}, {}, {}, {}, {}];
n_opt = 300;
dur = [5, 6, 7, 10, 11, 12, 1, 7, 8, 14, 17, 20, 1, 10, 14, 15, 17, 19, 4, 5, 6, 11, 13, 14, 2, 4, 5, 15, 19, 20, 1, 3, 4, 6, 7, 10, 2, 6, 7, 13, 18, 20, 2, 3, 6, 8, 11, 12, 7, 13, 14, 17, 18, 19, 4, 5, 8, 12, 18, 19, 11, 12, 16, 17, 18, 19, 2, 8, 12, 14, 18, 19, 1, 2, 3, 5, 16, 17, 8, 9, 10, 11, 13, 18, 3, 7, 12, 13, 19, 20, 1, 3, 4, 7, 12, 15, 5, 10, 14, 17, 18, 20, 10, 11, 17, 18, 19, 20, 3, 7, 8, 16, 19, 20, 2, 4, 11, 13, 14, 17, 7, 11, 13, 15, 16, 17, 10, 11, 15, 16, 17, 20, 1, 2, 3, 9, 11, 14, 6, 7, 14, 16, 19, 20, 4, 9, 10, 11, 15, 19, 1, 2, 6, 8, 15, 17, 2, 5, 12, 16, 17, 19, 3, 4, 7, 10, 14, 20, 3, 4, 8, 9, 10, 18, 3, 5, 7, 13, 18, 19, 3, 4, 7, 8, 11, 18, 1, 3, 14, 15, 17, 18, 1, 3, 4, 5, 13, 18, 1, 2, 7, 13, 16, 19, 6, 8, 11, 12, 14, 18, 3, 4, 8, 14, 15, 16, 1, 3, 7, 17, 18, 19, 1, 2, 3, 16, 17, 20, 1, 2, 7, 8, 9, 10, 1, 2, 8, 13, 15, 16, 3, 5, 6, 7, 9, 11, 1, 2, 3, 11, 12, 18, 1, 5, 8, 10, 11, 18, 6, 7, 9, 18, 19, 20, 2, 5, 6, 8, 9, 20, 1, 2, 8, 9, 18, 19, 2, 6, 14, 15, 17, 18, 2, 3, 10, 14, 16, 17, 6, 11, 12, 16, 17, 18, 3, 12, 13, 15, 16, 19];
rreq = [|3, 2, 2, 1, 1, 1, 5, 4, 4, 3, 3, 3, 2, 1, 1, 1, 1, 1, 3, 3, 3, 3, 3, 3, 3, 3, 3, 3, 3, 3, 5, 4, 3, 3, 2, 2, 5, 5, 5, 5, 5, 5, 3, 2, 2, 2, 2, 2, 4, 3, 3, 2, 2, 2, 3, 3, 3, 2, 2, 1, 5, 4, 4, 4, 4, 4, 4, 4, 4, 3, 2, 2, 2, 2, 2, 1, 1, 1, 2, 1, 1, 1, 1, 1, 3, 3, 3, 2, 2, 2, 1, 1, 1, 1, 1, 1, 1, 1, 1, 1, 1, 1, 4, 3, 3, 3, 3, 3, 5, 4, 4, 4, 3, 3, 4, 4, 3, 3, 2, 2, 5, 5, 5, 5, 5, 5, 2, 2, 2, 2, 1, 1, 4, 3, 3, 2, 2, 2, 4, 3, 3, 2, 2, 2, 2, 2, 2, 2, 2, 2, 4, 3, 3, 3, 3, 3, 1, 1, 1, 1, 1, 1, 5, 3, 3, 3, 1, 1, 4, 4, 3, 3, 3, 2, 5, 4, 4, 4, 4, 4, 4, 4, 4, 4, 4, 4, 3, 2, 2, 2, 1, 1, 1, 1, 1, 1, 1, 1, 2, 1, 1, 1, 1, 1, 4, 4, 4, 4, 4, 4, 5, 3, 3, 2, 2, 1, 4, 3, 3, 2, 2, 2, 4, 4, 4, 4, 4, 4, 5, 5, 5, 5, 5, 5, 2, 2, 2, 2, 2, 2, 5, 4, 3, 3, 2, 2, 4, 3, 2, 2, 2, 1, 2, 1, 1, 1, 1, 1, 5, 5, 5, 5, 5, 5, 5, 5, 5, 5, 5, 5, 3, 2, 2, 2, 2, 2, 4, 3, 2, 2, 1, 1, 3, 3, 2, 2, 1, 1, 2, 2, 2, 2, 1, 1, 4, 4, 4, 4, 3, 3
 |2, 1, 1, 1, 1, 1, 3, 2, 2, 1, 1, 1, 5, 4, 4, 3, 3, 3, 3, 2, 2, 1, 1, 1, 3, 2, 2, 2, 1, 1, 4, 4, 4, 4, 4, 4, 1, 1, 1, 1, 1, 1, 4, 3, 3, 3, 3, 3, 3, 3, 3, 3, 2, 2, 4, 3, 3, 2, 1, 1, 5, 4, 4, 4, 3, 3, 3, 2, 2, 1, 1, 1, 2, 2, 2, 2, 2, 2, 5, 4, 3, 3, 3, 2, 4, 4, 4, 3, 3, 3, 3, 3, 3, 2, 1, 1, 1, 1, 1, 1, 1, 1, 3, 3, 3, 2, 2, 2, 4, 4, 4, 4, 4, 4, 4, 3, 3, 2, 1, 1, 2, 2, 2, 2, 2, 2, 5, 4, 3, 3, 2, 1, 1, 1, 1, 1, 1, 1, 5, 4, 4, 3, 3, 3, 1, 1, 1, 1, 1, 1, 1, 1, 1, 1, 1, 1, 2, 2, 2, 2, 1, 1, 5, 4, 4, 4, 4, 4, 3, 3, 2, 2, 2, 1, 4, 4, 3, 3, 1, 1, 5, 5, 5, 5, 5, 5, 3, 3, 2, 2, 2, 1, 3, 3, 3, 2, 1, 1, 2, 2, 2, 2, 2, 2, 3, 3, 2, 2, 1, 1, 3, 3, 2, 2, 2, 1, 2, 2, 2, 2, 2, 2, 3, 3, 3, 3, 3, 3, 5, 4, 4, 3, 3, 2, 4, 4, 4, 3, 3, 3, 2, 1, 1, 1, 1, 1, 4, 4, 4, 4, 4, 4, 4, 4, 4, 3, 3, 3, 4, 3, 3, 2, 2, 1, 3, 2, 2, 2, 2, 2, 4, 3, 3, 3, 3, 3, 2, 2, 2, 2, 2, 2, 4, 4, 4, 4, 4, 4, 5, 4, 4, 4, 3, 3, 5, 4, 3, 3, 2, 2
 |19, 19, 19, 19, 19, 19, 17, 14, 11, 8, 6, 6, 13, 13, 11, 11, 9, 8, 11, 11, 11, 11, 11, 11, 14, 13, 12, 11, 11, 10, 19, 18, 18, 17, 15, 15, 6, 6, 5, 5, 4, 3, 7, 7, 7, 7, 7, 7, 17, 13, 11, 10, 8, 7, 10, 9, 9, 7, 6, 5, 15, 13, 12, 10, 9, 7, 19, 18, 18, 18, 18, 18, 18, 17, 14, 13, 9, 8, 16, 16, 14, 11, 9, 6, 14, 14, 13, 13, 13, 12, 11, 8, 7, 5, 3, 1, 16, 14, 13, 10, 7, 7, 5, 5, 5, 5, 5, 5, 19, 15, 11, 8, 5, 3, 14, 14, 12, 11, 10, 10, 13, 12, 11, 8, 7, 5, 15, 15, 15, 14, 13, 13, 19, 19, 19, 18, 18, 18, 12, 11, 10, 6, 4, 2, 17, 16, 16, 16, 15, 15, 7, 5, 5, 3, 3, 2, 16, 15, 14, 13, 13, 11, 20, 15, 11, 9, 5, 2, 3, 3, 3, 3, 3, 3, 14, 12, 10, 9, 5, 5, 16, 15, 13, 12, 11, 8, 9, 7, 6, 5, 3, 1, 19, 13, 11, 7, 7, 3, 14, 13, 13, 13, 13, 13, 20, 16, 15, 14, 11, 9, 12, 11, 11, 11, 10, 10, 16, 15, 12, 10, 8, 8, 11, 11, 10, 10, 10, 9, 12, 9, 8, 7, 4, 3, 5, 5, 5, 5, 5, 5, 14, 13, 13, 12, 11, 11, 18, 15, 15, 14, 13, 12, 16, 15, 14, 14, 13, 13, 13, 11, 10, 9, 7, 5, 9, 7, 7, 4, 4, 3, 13, 12, 12, 12, 12, 12, 15, 15, 13, 13, 12, 10, 18, 18, 17, 16, 16, 15, 18, 17, 17, 17, 17, 17, 17, 16, 16, 15, 15, 15
 |19, 18, 17, 17, 16, 15, 13, 11, 11, 7, 6, 4, 12, 10, 10, 8, 5, 3, 19, 15, 14, 8, 7, 5, 7, 5, 5, 4, 4, 3, 17, 14, 13, 13, 12, 11, 19, 19, 19, 19, 19, 19, 17, 14, 14, 10, 9, 5, 16, 14, 13, 13, 12, 11, 9, 7, 6, 6, 4, 4, 10, 7, 7, 6, 4, 1, 14, 13, 11, 7, 7, 4, 8, 7, 6, 6, 4, 4, 17, 17, 16, 14, 14, 13, 17, 14, 14, 12, 8, 5, 5, 4, 4, 3, 2, 1, 12, 10, 9, 9, 7, 6, 14, 13, 13, 12, 12, 12, 12, 11, 8, 6, 4, 1, 14, 13, 11, 11, 10, 9, 12, 12, 9, 7, 4, 4, 13, 13, 13, 12, 12, 12, 13, 13, 11, 7, 7, 4, 18, 16, 16, 14, 14, 12, 7, 6, 6, 5, 5, 5, 12, 10, 8, 7, 7, 5, 14, 11, 10, 6, 3, 2, 13, 13, 12, 12, 12, 11, 4, 4, 4, 4, 4, 4, 7, 6, 6, 6, 5, 5, 15, 12, 10, 8, 7, 4, 18, 15, 14, 12, 9, 6, 5, 4, 4, 4, 3, 3, 10, 10, 8, 7, 7, 6, 16, 15, 12, 12, 8, 8, 18, 15, 12, 7, 6, 3, 11, 10, 8, 6, 4, 3, 13, 13, 12, 11, 10, 9, 13, 10, 8, 8, 4, 4, 13, 13, 10, 9, 6, 2, 18, 17, 17, 16, 16, 16, 18, 17, 15, 12, 10, 10, 11, 8, 8, 6, 5, 3, 18, 17, 17, 16, 15, 15, 13, 13, 9, 8, 6, 5, 4, 4, 4, 4, 4, 4, 18, 14, 13, 9, 8, 4, 14, 14, 13, 12, 12, 11, 18, 18, 18, 18, 18, 18, 9, 9, 9, 9, 9, 9
 |12, 11, 10, 9, 8, 7, 13, 10, 9, 6, 4, 2, 19, 17, 16, 16, 14, 13, 15, 13, 12, 11, 7, 7, 18, 17, 17, 17, 16, 16, 17, 15, 11, 11, 7, 7, 14, 11, 11, 9, 8, 5, 11, 9, 8, 7, 6, 6, 15, 14, 11, 11, 9, 7, 19, 18, 16, 15, 15, 13, 11, 9, 9, 7, 3, 3, 19, 19, 19, 19, 18, 18, 17, 12, 10, 10, 5, 3, 11, 11, 11, 10, 10, 10, 12, 11, 9, 8, 7, 6, 17, 17, 17, 17, 17, 17, 7, 6, 6, 6, 5, 4, 12, 10, 9, 8, 7, 6, 3, 2, 2, 1, 1, 1, 15, 14, 14, 12, 12, 11, 9, 9, 8, 8, 7, 6, 18, 17, 14, 11, 9, 9, 17, 16, 16, 16, 16, 16, 13, 11, 11, 7, 5, 5, 19, 15, 13, 10, 8, 4, 11, 8, 8, 6, 4, 3, 5, 4, 3, 2, 1, 1, 12, 11, 11, 10, 8, 8, 2, 2, 2, 2, 2, 2, 15, 12, 11, 9, 7, 7, 14, 14, 13, 12, 11, 11, 4, 4, 4, 3, 3, 2, 4, 4, 3, 2, 1, 1, 12, 10, 9, 8, 6, 3, 15, 15, 14, 14, 14, 13, 15, 14, 12, 9, 7, 6, 17, 16, 16, 15, 15, 15, 17, 15, 15, 14, 12, 12, 12, 12, 11, 10, 8, 8, 5, 4, 3, 2, 2, 1, 15, 12, 12, 10, 7, 4, 16, 15, 12, 11, 10, 7, 17, 16, 15, 15, 14, 12, 5, 4, 4, 3, 3, 2, 16, 14, 13, 12, 10, 9, 14, 12, 12, 11, 8, 7, 14, 10, 8, 7, 3, 3, 8, 7, 6, 4, 3, 3, 8, 6, 6, 5, 3, 3, 12, 11, 10, 8, 6, 5
 |4, 4, 4, 4, 4, 4, 6, 5, 5, 4, 3, 3, 16, 16, 16, 16, 16, 16, 11, 9, 9, 8, 7, 5, 8, 8, 8, 8, 8, 8, 15, 14, 14, 14, 13, 13, 17, 14, 10, 10, 6, 3, 13, 13, 11, 9, 9, 7, 17, 16, 14, 13, 12, 12, 18, 14, 12, 11, 9, 5, 13, 11, 8, 7, 6, 3, 18, 18, 16, 14, 13, 13, 16, 14, 14, 14, 13, 12, 13, 12, 12, 12, 11, 11, 8, 7, 7, 6, 6, 6, 14, 13, 11, 10, 10, 9, 16, 15, 15, 15, 14, 14, 12, 10, 8, 7, 4, 3, 9, 9, 9, 9, 9, 9, 16, 16, 15, 14, 14, 13, 6, 4, 4, 2, 1, 1, 10, 10, 10, 10, 10, 10, 13, 13, 13, 12, 11, 11, 16, 16, 15, 15, 14, 13, 6, 5, 5, 4, 4, 3, 20, 20, 20, 20, 20, 20, 11, 8, 6, 6, 3, 3, 12, 12, 8, 7, 4, 3, 17, 14, 14, 9, 8, 3, 12, 11, 11, 11, 12, 11, 10, 8, 8, 5, 3, 2, 3, 3, 3, 3, 3, 3, 18, 14, 12, 11, 7, 2, 14, 14, 13, 13, 11, 11, 13, 10, 8, 7, 4, 4, 10, 9, 9, 8, 8, 7, 12, 11, 11, 9, 9, 8, 13, 11, 9, 8, 7, 3, 11, 11, 11, 11, 11, 11, 19, 16, 11, 10, 7, 4, 10, 9, 9, 9, 9, 9, 14, 11, 8, 7, 3, 1, 18, 14, 10, 10, 4, 2, 7, 7, 7, 7, 7, 7, 14, 13, 11, 8, 4, 1, 17, 15, 14, 13, 12, 12, 11, 10, 10, 10, 10, 10, 19, 18, 17, 17, 17, 16, 19, 19, 18, 17, 15, 14, 17, 16, 12, 8, 6, 2|];